POSCAR file written by OVITO Basic 3.8.0
1
39.0564069399 0.0 0.0
19.5282034699 20.3737392671 0.0
-1.0409019644e-27 -0.1871559413 2.7553449416
W 
135 
Cartesian
39.0918108 3.06018786 0.607827304
5.24281053 2.99796465 1.52642497
41.6954552 2.93555568 2.44471973
3.94083376 0.82577407 0.455917614
1.33718146 0.763219972 1.37424187
6.54462845 0.701052176 2.29312582
39.0916637 7.52358525 0.910937147
44.2994084 7.46100825 1.82977804
41.6954771 7.39877724 2.7479592
42.9973614 5.28974482 0.759374066
40.3935708 5.22737678 1.67770027
6.54484617 5.16484148 2.59652887
39.0917542 11.9913655 1.21454154
44.2997302 11.9284657 2.13360662
41.6957144 12.053516 0.296351142
42.9975501 9.75728046 1.06304965
40.3936144 9.69508557 1.98122738
45.6015612 9.81939434 0.144972549
39.0920617 16.4542926 1.51790131
44.300116 16.391314 2.43706607
41.6960956 16.5163749 0.599785079
42.9979168 14.2246381 1.36689118
40.3938926 14.1625451 2.28500014
45.6019344 14.2867326 0.448820831
19.5647185 0.824665285 0.458207511
24.7724421 0.761955511 1.37641425
22.1686414 0.69967691 2.29508394
42.9981982 18.6881904 1.67005511
40.3941324 18.6260828 2.58803239
45.6022183 18.7503781 0.752114109
19.5647198 5.28838588 0.761056956
24.7721877 5.22602996 1.67926639
22.1685089 5.16356401 2.59790769
23.4704247 3.05888389 0.609586919
20.8666075 2.99657879 1.52811087
26.0741278 2.93415828 2.4462615
19.5647219 9.75618979 1.0645667
24.7718817 9.69418457 1.982487
22.1683446 9.81872148 0.145917592
23.4702701 7.52230654 0.91259062
20.8666154 7.45982155 1.83123903
26.073826 7.39773325 2.74916555
19.564453 14.2242711 1.36780492
24.7714674 14.1624636 2.28558866
22.1679712 14.286934 0.449058051
23.4699354 11.9906649 1.21578698
20.8664075 11.9280149 2.13455037
26.0734263 12.0533388 0.296953184
19.5641884 18.688671 1.67111608
24.7711021 18.6268335 2.58864026
22.1676361 18.7513609 0.752242307
23.4695061 16.4543792 1.51863092
20.8660139 16.3916812 2.43744595
26.0730288 16.5170162 0.599799261
7.84668252 3.06024181 0.608261578
13.054658 2.9973549 1.52746339
10.4506434 2.93525407 2.445526
11.7525563 0.825539919 0.457185387
9.14854295 0.763351338 1.37512625
14.3566241 0.700490263 2.29455801
7.84699091 7.52315728 0.9116937
13.0550389 7.46020508 1.83090078
10.4510214 7.39810482 2.74898796
11.7528417 5.28909269 0.760358305
9.14881966 5.2269942 1.6784284
14.3568535 5.16402835 2.59759707
46.9037584 11.9905722 1.21555592
13.0552687 11.9277904 2.13464357
49.5077549 12.0527133 0.297474259
11.753195 9.75645188 1.06420302
48.2055974 9.69433201 1.98227703
14.3571444 9.81863671 0.146029531
46.9040759 16.4534879 1.51898795
52.1117101 16.3910021 2.43788796
49.5079487 16.5157601 0.600830815
50.8098046 14.223977 1.36788324
48.205906 14.1617282 2.28606848
14.3571844 14.2863432 0.449563658
27.3761092 0.824358383 0.457579559
32.583133 0.762356375 1.3750372
29.9796601 0.699732092 2.29398901
50.809927 18.6879498 1.67134084
48.2061297 18.6255237 2.58946623
53.4135829 18.7504956 0.753025916
27.3757708 5.28860596 0.760510137
32.5827915 5.22678236 1.67821992
29.9792937 5.16409692 2.59703659
31.2812593 3.0593474 0.608648722
28.6777337 2.99670759 1.52748107
33.8847497 2.93487809 2.44517539
27.3753752 9.75685589 1.06364103
32.5824058 9.6949953 1.98135841
29.9788725 9.81953011 0.144793951
31.2808231 7.52305966 0.911493381
28.6773234 7.4603857 1.83032923
33.8843492 7.39854587 2.74806986
27.3749848 14.2251161 1.36677036
32.5822453 14.1629971 2.28470786
29.9785658 14.2876863 0.448010212
31.2804825 11.991417 1.2146861
28.6769299 11.9288355 2.13346071
33.8841329 12.0539017 0.296031144
27.3746619 18.6893634 1.66970572
32.5821187 18.6268882 2.58753346
29.9783219 18.7517664 0.75086701
31.280334 16.4548421 1.51768619
28.6766296 16.3924117 2.43636246
33.8841475 16.5171452 0.599154421
15.6586933 3.05943542 0.609351178
18.2626815 2.93438948 2.44647633
16.9606974 0.762567769 1.376471
15.6589928 7.52236517 0.912715584
18.2628669 7.39745495 2.7497314
16.9608303 5.22615811 1.67939538
15.6590941 11.990132 1.21632587
18.2628018 12.0525954 0.297844383
16.9609863 9.69377723 1.98305488
54.71536 16.4535233 1.51944143
18.2625121 16.5161518 0.600836643
16.9608641 14.1616759 2.28643256
35.1865742 0.825038456 0.456159701
37.7900401 0.700570361 2.29277499
56.0171309 18.6259805 2.58984257
35.1863087 5.28944345 0.75946891
37.7898934 5.16488406 2.59618183
36.4882487 2.99756201 1.52643669
35.1860366 9.75753056 1.06270323
37.7897606 9.81994859 0.144208507
36.4879548 7.46112213 1.82942485
35.1860286 14.2253397 1.36620701
37.7899279 14.2875665 0.447861632
36.4878903 11.9291081 2.13287636
35.1860405 18.6890604 1.66905461
37.790056 18.7511596 0.750782322
36.4880718 16.3921844 2.43612724
