POSCAR file written by OVITO Basic 3.8.0
1
39.0347727495 0.0 0.0
19.5173863691 20.315641961 -1.3799336112
0.0 0.0 2.7601641165
W 
135 
Cartesian
39.0721722 3.01281083 -0.142787781
5.2329316 3.02243552 0.978060064
41.6726296 3.01850895 1.82938596
3.93323903 0.766973619 -0.0243082986
1.33559891 0.764684781 0.804353299
6.52899461 0.767504355 1.85617702
39.1132858 7.52311982 0.136522979
44.2815167 7.54394392 1.20203081
41.6950994 7.54541141 2.08504497
42.9763383 5.28011026 0.127345949
40.3819037 5.26764349 0.947941139
6.53410505 5.27995374 2.00640735
39.0999746 12.087891 0.745687907
44.2924535 12.0696263 1.48376118
41.6981904 12.0766969 2.45290308
42.9926156 9.81178875 0.433441742
40.4047235 9.81922195 1.38258113
45.5831274 9.8056179 2.27092423
39.0845355 16.584416 0.900929722
44.2932141 16.5788815 1.64161731
41.6921979 16.5813194 2.62486118
42.995074 14.3283223 0.686097317
40.3937331 14.3334413 1.69986467
45.5915447 14.3240809 2.49254806
19.5672335 0.760429978 -0.479521623
24.7759162 0.765860632 0.261239693
22.1748544 0.763489852 1.24440542
42.9926358 18.8302256 0.765755174
40.3877288 18.8302537 1.77322426
45.592049 18.8302388 2.56897818
19.5826657 5.2568979 -0.63487213
24.7751842 5.27505504 0.103462329
22.1809306 5.26802625 1.07261922
23.4778314 3.01644117 -0.694361622
20.8764247 3.01131219 0.319258605
26.074324 3.02081467 1.11214745
19.5957191 9.82147148 1.5173293
24.7640315 9.80066088 2.58263512
22.1775533 9.79912119 3.46573917
23.4752048 7.53282447 -0.946446618
20.887373 7.52534658 0.002592779
26.0657411 7.5392156 0.890874612
19.5546728 14.3319089 1.23765745
24.7502892 14.3222234 2.35879501
22.1551904 14.3260859 3.20999817
23.4588282 12.064416 1.50813793
20.8644048 12.0768816 2.32865179
26.0513696 12.0647 3.38710308
19.5524713 18.8302059 1.19065897
24.7480566 18.8301736 2.2842588
22.151457 18.8301025 3.14005072
23.4505677 16.5776567 1.35611614
20.8529218 16.5798943 2.18470935
26.0463494 16.5772739 3.23669777
7.82762998 3.02084036 0.0748132808
13.0254587 3.01145101 0.868405983
10.4241536 3.01659069 1.88171039
11.7270233 0.763562948 -0.0568702911
9.12605824 0.765991345 0.925861235
14.3346068 0.760467869 1.66744308
7.83638451 7.53938672 0.29667027
13.0146797 7.5256793 1.1855438
10.4269365 7.53318383 2.13439501
11.7211537 5.26828694 0.115140758
9.12690026 5.27530005 1.08392081
14.3192821 5.257046 1.82273717
46.8852191 12.0649255 0.56095391
13.0373891 12.0771522 1.61886205
49.4777951 12.0647651 2.43972863
11.7245042 9.79953206 0.482487423
48.1727261 9.80099231 1.36551676
14.3062413 9.82174722 2.43078673
46.8902281 16.5773894 0.710850614
52.083421 16.5801591 1.76184462
49.485944 16.5778699 2.59096391
50.7812831 14.3263469 0.737134973
48.1862706 14.3224477 1.58888534
14.3468691 14.3320915 2.70893455
27.3729004 0.767550062 -0.669439465
32.5661642 0.76499593 0.381663249
29.9686463 0.767236916 1.2107449
50.7851068 18.8304264 0.806725453
48.1885697 18.8302915 1.6629402
53.3839736 18.830436 2.75563378
27.367991 5.27998066 -0.819417551
32.5549158 5.26799518 0.238470335
29.9604994 5.28035114 1.05933964
31.2639963 3.01887608 -0.643140546
28.6689931 3.02260223 0.208530825
33.8644154 3.01304215 1.32872157
27.3536721 9.80544598 1.67706414
32.5320536 9.81932954 2.56557727
29.9441889 9.81183595 3.5145251
31.2419269 7.5456365 -0.89792243
28.6554115 7.54401028 -0.0148151816
33.8238183 7.52342237 1.05030428
27.344968 14.3239573 1.4554879
32.5427863 14.3335316 2.24888932
29.9414304 14.3283093 3.262247
31.2384168 12.0767383 1.49556073
28.6441759 12.0695885 2.46445229
33.8365712 12.0879518 3.20315619
27.3446136 18.8302312 1.37859451
32.5488737 18.8302855 2.17514937
29.9440277 18.8302942 3.18221516
31.2444076 16.5813526 1.32359007
28.6433829 16.5789561 2.30635606
33.8519717 16.5844905 3.04787975
15.6356778 3.00239912 -0.220109471
18.2662076 3.00243378 1.40805771
16.9508987 0.760084443 0.594052399
15.6120985 7.51382287 0.125833987
18.2899943 7.51372343 1.06205338
16.9509574 5.2295946 0.594013376
15.6444326 12.0887584 0.908684921
18.257268 12.0886077 3.03828465
16.950849 9.8399053 1.97363223
54.6842417 16.5825879 0.976650656
18.2519965 16.5824807 2.969509
16.950725 14.3356667 1.97315471
35.1670008 0.762469824 -0.403582408
37.7695112 0.762275086 1.58926019
55.9856057 18.830325 1.97304848
35.161987 5.25638225 -0.471628225
37.7748067 5.25620751 1.65783155
36.4682731 3.00923357 0.592873671
35.1294476 9.83111928 1.50616967
37.8072364 9.83119213 2.44276597
36.4685301 7.50500932 0.593246376
35.1530156 14.3425518 1.16037604
37.78347 14.3425075 2.78861773
36.4681866 12.1152444 1.97461145
35.1608472 18.8302682 1.12686446
37.7758505 18.8302787 2.82175039
36.4682796 16.5848043 1.97450244
